decision_x1=[0,4];
decision_x2=[0,4];
decision_x3=[0,4];
decision_x4=[0,4];
decision_x5=[0,4];
decision_x6=[0,4];
decision_x7=[0,4];
decision_x8=[0,4];
decision_x9=[0,4];
decision_x10=[0,4];
random_y1=[0,4];
random_y2=[0,4];
random_y3=[0,4];
random_y4=[0,4];
random_y5=[0,4];
random_y6=[0,4];
random_y7=[0,4];
random_y8=[0,4];
random_y9=[0,4];
random_y10=[0,4];
constraint_x3_x2=[
0,0,35|
0,1,60|
0,2,97|
0,3,18|
0,4,14|
1,0,42|
1,1,51|
1,2,28|
1,3,16|
1,4,89|
2,0,30|
2,1,25|
2,2,18|
2,3,48|
2,4,50|
3,0,95|
3,1,77|
3,2,73|
3,3,87|
3,4,3.7|
4,0,45|
4,1,54|
4,2,59|
4,3,53|
4,4,32|
];
constraint_x4_x3=[
0,0,45|
0,1,7.5|
0,2,50|
0,3,83|
0,4,51|
1,0,27|
1,1,50|
1,2,99|
1,3,66|
1,4,45|
2,0,31|
2,1,75|
2,2,11|
2,3,65|
2,4,96|
3,0,68|
3,1,55|
3,2,24|
3,3,12|
3,4,3|
4,0,8.6|
4,1,18|
4,2,92|
4,3,73|
4,4,27|
];
constraint_x6_x2=[
0,0,17|
0,1,1.5|
0,2,92|
0,3,79|
0,4,96|
1,0,5.9|
1,1,31|
1,2,91|
1,3,43|
1,4,65|
2,0,64|
2,1,44|
2,2,39|
2,3,85|
2,4,56|
3,0,16|
3,1,44|
3,2,15|
3,3,15|
3,4,5.1|
4,0,46|
4,1,19|
4,2,91|
4,3,10|
4,4,61|
];
constraint_x6_x3=[
0,0,13|
0,1,25|
0,2,80|
0,3,78|
0,4,25|
1,0,87|
1,1,77|
1,2,32|
1,3,47|
1,4,42|
2,0,79|
2,1,38|
2,2,63|
2,3,27|
2,4,21|
3,0,92|
3,1,48|
3,2,56|
3,3,82|
3,4,76|
4,0,39|
4,1,3.3|
4,2,59|
4,3,93|
4,4,4.4|
];
constraint_x6_x5=[
0,0,71|
0,1,41|
0,2,29|
0,3,89|
0,4,27|
1,0,89|
1,1,28|
1,2,32|
1,3,18|
1,4,97|
2,0,29|
2,1,29|
2,2,81|
2,3,18|
2,4,60|
3,0,3.5|
3,1,84|
3,2,45|
3,3,99|
3,4,14|
4,0,99|
4,1,4.8|
4,2,44|
4,3,72|
4,4,68|
];
constraint_x7_x1=[
0,0,53|
0,1,56|
0,2,50|
0,3,32|
0,4,36|
1,0,97|
1,1,90|
1,2,3.4|
1,3,25|
1,4,44|
2,0,61|
2,1,50|
2,2,81|
2,3,67|
2,4,59|
3,0,18|
3,1,39|
3,2,63|
3,3,41|
3,4,67|
4,0,37|
4,1,45|
4,2,91|
4,3,68|
4,4,0.77|
];
constraint_x7_x5=[
0,0,1.7|
0,1,2.7|
0,2,86|
0,3,4.3|
0,4,73|
1,0,62|
1,1,17|
1,2,85|
1,3,9.8|
1,4,55|
2,0,94|
2,1,30|
2,2,73|
2,3,67|
2,4,34|
3,0,31|
3,1,76|
3,2,0.62|
3,3,48|
3,4,33|
4,0,32|
4,1,45|
4,2,72|
4,3,6.5|
4,4,99|
];
constraint_x7_x6=[
0,0,84|
0,1,92|
0,2,76|
0,3,5.2|
0,4,1e+02|
1,0,10|
1,1,3.4|
1,2,45|
1,3,39|
1,4,7.1|
2,0,35|
2,1,18|
2,2,85|
2,3,50|
2,4,28|
3,0,76|
3,1,43|
3,2,71|
3,3,32|
3,4,97|
4,0,56|
4,1,26|
4,2,43|
4,3,38|
4,4,24|
];
constraint_x8_x1=[
0,0,54|
0,1,42|
0,2,17|
0,3,53|
0,4,70|
1,0,34|
1,1,97|
1,2,48|
1,3,20|
1,4,79|
2,0,56|
2,1,63|
2,2,35|
2,3,10|
2,4,51|
3,0,62|
3,1,29|
3,2,68|
3,3,28|
3,4,7.9|
4,0,9.9|
4,1,38|
4,2,13|
4,3,52|
4,4,92|
];
constraint_x8_x2=[
0,0,6.7|
0,1,74|
0,2,69|
0,3,88|
0,4,66|
1,0,4.4|
1,1,90|
1,2,20|
1,3,30|
1,4,14|
2,0,41|
2,1,56|
2,2,96|
2,3,63|
2,4,5.6|
3,0,66|
3,1,44|
3,2,23|
3,3,74|
3,4,86|
4,0,33|
4,1,24|
4,2,46|
4,3,2.4|
4,4,6.5|
];
constraint_x8_x3=[
0,0,67|
0,1,7.7|
0,2,28|
0,3,20|
0,4,17|
1,0,46|
1,1,48|
1,2,60|
1,3,39|
1,4,35|
2,0,57|
2,1,8.6|
2,2,94|
2,3,12|
2,4,15|
3,0,30|
3,1,30|
3,2,47|
3,3,82|
3,4,33|
4,0,85|
4,1,8.1|
4,2,4.2|
4,3,11|
4,4,16|
];
constraint_x8_x4=[
0,0,57|
0,1,97|
0,2,38|
0,3,97|
0,4,67|
1,0,26|
1,1,57|
1,2,90|
1,3,90|
1,4,15|
2,0,0.92|
2,1,81|
2,2,30|
2,3,67|
2,4,11|
3,0,76|
3,1,4.9|
3,2,5.9|
3,3,19|
3,4,95|
4,0,65|
4,1,97|
4,2,30|
4,3,93|
4,4,54|
];
constraint_x8_x6=[
0,0,50|
0,1,96|
0,2,36|
0,3,68|
0,4,97|
1,0,42|
1,1,41|
1,2,42|
1,3,36|
1,4,93|
2,0,6.4|
2,1,48|
2,2,99|
2,3,62|
2,4,99|
3,0,17|
3,1,69|
3,2,14|
3,3,94|
3,4,98|
4,0,55|
4,1,83|
4,2,43|
4,3,87|
4,4,30|
];
constraint_x8_x7=[
0,0,20|
0,1,15|
0,2,39|
0,3,26|
0,4,66|
1,0,84|
1,1,30|
1,2,49|
1,3,91|
1,4,0.39|
2,0,34|
2,1,83|
2,2,35|
2,3,17|
2,4,97|
3,0,76|
3,1,29|
3,2,44|
3,3,64|
3,4,65|
4,0,56|
4,1,77|
4,2,62|
4,3,24|
4,4,25|
];
constraint_x9_x2=[
0,0,34|
0,1,17|
0,2,32|
0,3,63|
0,4,4.6|
1,0,98|
1,1,52|
1,2,39|
1,3,83|
1,4,44|
2,0,86|
2,1,5|
2,2,81|
2,3,43|
2,4,84|
3,0,6.7|
3,1,22|
3,2,55|
3,3,18|
3,4,87|
4,0,97|
4,1,86|
4,2,67|
4,3,4.3|
4,4,70|
];
constraint_x9_x3=[
0,0,16|
0,1,42|
0,2,24|
0,3,4.4|
0,4,25|
1,0,54|
1,1,69|
1,2,91|
1,3,58|
1,4,33|
2,0,1e+02|
2,1,39|
2,2,47|
2,3,66|
2,4,92|
3,0,93|
3,1,49|
3,2,73|
3,3,75|
3,4,69|
4,0,84|
4,1,25|
4,2,37|
4,3,14|
4,4,0.5|
];
constraint_x9_x6=[
0,0,93|
0,1,13|
0,2,92|
0,3,89|
0,4,29|
1,0,35|
1,1,40|
1,2,64|
1,3,41|
1,4,69|
2,0,14|
2,1,30|
2,2,90|
2,3,41|
2,4,9.3|
3,0,3.9|
3,1,34|
3,2,37|
3,3,99|
3,4,92|
4,0,36|
4,1,96|
4,2,98|
4,3,81|
4,4,61|
];
constraint_x9_x7=[
0,0,11|
0,1,76|
0,2,36|
0,3,1.4|
0,4,23|
1,0,82|
1,1,27|
1,2,44|
1,3,79|
1,4,10|
2,0,40|
2,1,45|
2,2,90|
2,3,80|
2,4,2.1|
3,0,57|
3,1,73|
3,2,23|
3,3,80|
3,4,67|
4,0,76|
4,1,44|
4,2,56|
4,3,96|
4,4,22|
];
constraint_x9_x8=[
0,0,98|
0,1,2.6|
0,2,90|
0,3,24|
0,4,62|
1,0,19|
1,1,47|
1,2,39|
1,3,87|
1,4,61|
2,0,23|
2,1,96|
2,2,22|
2,3,54|
2,4,67|
3,0,47|
3,1,92|
3,2,32|
3,3,93|
3,4,40|
4,0,63|
4,1,93|
4,2,38|
4,3,52|
4,4,98|
];
constraint_x10_x5=[
0,0,70|
0,1,55|
0,2,19|
0,3,28|
0,4,74|
1,0,32|
1,1,17|
1,2,19|
1,3,89|
1,4,19|
2,0,78|
2,1,9.4|
2,2,96|
2,3,99|
2,4,55|
3,0,25|
3,1,70|
3,2,49|
3,3,76|
3,4,59|
4,0,86|
4,1,11|
4,2,16|
4,3,12|
4,4,1.1|
];
constraint_x10_x6=[
0,0,22|
0,1,27|
0,2,1.3|
0,3,29|
0,4,71|
1,0,29|
1,1,28|
1,2,5.3|
1,3,94|
1,4,96|
2,0,33|
2,1,89|
2,2,78|
2,3,67|
2,4,79|
3,0,74|
3,1,35|
3,2,83|
3,3,92|
3,4,47|
4,0,55|
4,1,68|
4,2,78|
4,3,48|
4,4,30|
];
constraint_x10_x8=[
0,0,21|
0,1,4.4|
0,2,1.1|
0,3,99|
0,4,23|
1,0,51|
1,1,91|
1,2,97|
1,3,15|
1,4,16|
2,0,46|
2,1,4.9|
2,2,65|
2,3,80|
2,4,41|
3,0,30|
3,1,82|
3,2,88|
3,3,38|
3,4,74|
4,0,97|
4,1,53|
4,2,78|
4,3,91|
4,4,38|
];
constraint_x10_x9=[
0,0,95|
0,1,54|
0,2,82|
0,3,60|
0,4,39|
1,0,78|
1,1,99|
1,2,77|
1,3,22|
1,4,40|
2,0,93|
2,1,0.39|
2,2,89|
2,3,41|
2,4,25|
3,0,68|
3,1,92|
3,2,87|
3,3,97|
3,4,4.5|
4,0,43|
4,1,47|
4,2,45|
4,3,54|
4,4,54|
];
constraint_x1_y1=[
0,0,20|
0,1,47|
0,2,29|
0,3,61|
0,4,25|
1,0,94|
1,1,75|
1,2,16|
1,3,42|
1,4,75|
2,0,0.61|
2,1,50|
2,2,16|
2,3,76|
2,4,38|
3,0,94|
3,1,58|
3,2,14|
3,3,35|
3,4,28|
4,0,14|
4,1,29|
4,2,7.7|
4,3,95|
4,4,6.2|
];
constraint_x2_y2=[
0,0,7.4|
0,1,16|
0,2,73|
0,3,17|
0,4,69|
1,0,33|
1,1,60|
1,2,50|
1,3,15|
1,4,56|
2,0,97|
2,1,60|
2,2,4.7|
2,3,69|
2,4,42|
3,0,53|
3,1,19|
3,2,44|
3,3,56|
3,4,92|
4,0,63|
4,1,95|
4,2,68|
4,3,45|
4,4,18|
];
constraint_x3_y3=[
0,0,12|
0,1,7.3|
0,2,22|
0,3,75|
0,4,60|
1,0,77|
1,1,47|
1,2,68|
1,3,45|
1,4,59|
2,0,5.6|
2,1,57|
2,2,74|
2,3,88|
2,4,36|
3,0,45|
3,1,33|
3,2,36|
3,3,70|
3,4,95|
4,0,92|
4,1,9.6|
4,2,55|
4,3,95|
4,4,27|
];
constraint_x4_y4=[
0,0,8.5|
0,1,28|
0,2,51|
0,3,48|
0,4,84|
1,0,56|
1,1,61|
1,2,1e+02|
1,3,41|
1,4,98|
2,0,65|
2,1,24|
2,2,71|
2,3,36|
2,4,22|
3,0,23|
3,1,16|
3,2,13|
3,3,47|
3,4,48|
4,0,33|
4,1,85|
4,2,95|
4,3,56|
4,4,61|
];
constraint_x5_y5=[
0,0,57|
0,1,51|
0,2,16|
0,3,31|
0,4,20|
1,0,41|
1,1,44|
1,2,58|
1,3,93|
1,4,42|
2,0,56|
2,1,73|
2,2,23|
2,3,82|
2,4,34|
3,0,83|
3,1,77|
3,2,47|
3,3,25|
3,4,81|
4,0,38|
4,1,93|
4,2,14|
4,3,12|
4,4,11|
];
constraint_x6_y6=[
0,0,36|
0,1,28|
0,2,97|
0,3,28|
0,4,97|
1,0,75|
1,1,4.7|
1,2,33|
1,3,83|
1,4,47|
2,0,44|
2,1,71|
2,2,39|
2,3,6.1|
2,4,67|
3,0,57|
3,1,84|
3,2,77|
3,3,1e+02|
3,4,9|
4,0,37|
4,1,49|
4,2,96|
4,3,23|
4,4,62|
];
constraint_x7_y7=[
0,0,44|
0,1,17|
0,2,4.5|
0,3,35|
0,4,7|
1,0,51|
1,1,55|
1,2,59|
1,3,76|
1,4,95|
2,0,2.7|
2,1,83|
2,2,59|
2,3,55|
2,4,63|
3,0,5.5|
3,1,78|
3,2,40|
3,3,79|
3,4,94|
4,0,8.3|
4,1,67|
4,2,50|
4,3,44|
4,4,98|
];
constraint_x8_y8=[
0,0,80|
0,1,68|
0,2,88|
0,3,75|
0,4,48|
1,0,75|
1,1,90|
1,2,63|
1,3,66|
1,4,52|
2,0,63|
2,1,48|
2,2,83|
2,3,15|
2,4,18|
3,0,49|
3,1,88|
3,2,85|
3,3,45|
3,4,8.3|
4,0,37|
4,1,50|
4,2,99|
4,3,78|
4,4,1.6|
];
constraint_x9_y9=[
0,0,76|
0,1,25|
0,2,31|
0,3,13|
0,4,52|
1,0,85|
1,1,69|
1,2,5|
1,3,90|
1,4,89|
2,0,91|
2,1,49|
2,2,39|
2,3,7.2|
2,4,6.6|
3,0,78|
3,1,53|
3,2,62|
3,3,48|
3,4,79|
4,0,39|
4,1,3.4|
4,2,11|
4,3,90|
4,4,57|
];
constraint_x10_y10=[
0,0,40|
0,1,34|
0,2,0.62|
0,3,90|
0,4,22|
1,0,22|
1,1,44|
1,2,81|
1,3,49|
1,4,11|
2,0,43|
2,1,55|
2,2,86|
2,3,92|
2,4,52|
3,0,83|
3,1,86|
3,2,86|
3,3,46|
3,4,53|
4,0,4.6|
4,1,71|
4,2,31|
4,3,21|
4,4,81|
];
initial_distribution_y1=[0.11,0.058,0.25,0.34,0.24];
initial_distribution_y2=[0.036,0.27,0.21,0.24,0.25];
initial_distribution_y3=[0.032,0.18,0.25,0.35,0.18];
initial_distribution_y4=[0.1,0.32,0.21,0.18,0.19];
initial_distribution_y5=[0.18,0.28,0.18,0.11,0.26];
initial_distribution_y6=[0.077,0.2,0.37,0.14,0.21];
initial_distribution_y7=[0.39,0.03,0.13,0.18,0.28];
initial_distribution_y8=[0.12,0.23,0.23,0.29,0.13];
initial_distribution_y9=[0.31,0.13,0.27,0.1,0.19];
initial_distribution_y10=[0.23,0.25,0.25,0.15,0.12];
transition_y1=[
0.16,0.023,0.038,0.026,0.76|
0.089,0.29,0.21,0.29,0.13|
0.24,0.33,0.15,0.053,0.22|
0.0092,0.41,0.051,0.44,0.088|
0.079,0.24,0.15,0.27,0.25|
];
transition_y2=[
0.053,0.016,0.021,0.46,0.45|
0.27,0.27,0.24,0.052,0.17|
0.12,0.33,0.36,0.12,0.082|
0.33,0.23,0.024,0.29,0.12|
0.35,0.15,0.065,0.28,0.16|
];
transition_y3=[
0.31,0.17,0.11,0.077,0.33|
0.21,0.36,0.13,0.023,0.28|
0.11,0.3,0.2,0.29,0.1|
0.36,0.076,0.017,0.2,0.35|
0.16,0.52,0.065,0.11,0.14|
];
transition_y4=[
0.25,0.17,0.018,0.33,0.23|
0.19,0.32,0.33,0.042,0.13|
0.27,0.26,0.011,0.25,0.2|
0.055,0.2,0.017,0.32,0.42|
0.2,0.36,0.38,0.037,0.026|
];
transition_y5=[
0.12,0.01,0.52,0.13,0.22|
0.0057,0.46,0.094,0.2,0.24|
0.15,0.061,0.33,0.14,0.31|
0.16,0.17,0.24,0.15,0.28|
0.2,0.36,0.26,0.094,0.079|
];
transition_y6=[
0.27,0.24,0.0079,0.22,0.27|
0.26,0.1,0.23,0.23,0.18|
0.31,0.27,0.082,0.06,0.28|
0.0065,0.21,0.31,0.34,0.13|
0.15,0.14,0.18,0.29,0.24|
];
transition_y7=[
0.22,0.086,0.13,0.3,0.27|
0.51,0.32,0.065,0.014,0.086|
0.29,0.013,0.16,0.44,0.088|
0.056,0.28,0.16,0.26,0.24|
0.15,0.21,0.39,0.046,0.2|
];
transition_y8=[
0.16,0.34,0.04,0.3,0.16|
0.19,0.22,0.13,0.27,0.19|
0.25,0.3,0.066,0.38,0.006|
0.29,0.021,0.22,0.14,0.33|
0.21,0.095,0.31,0.23,0.15|
];
transition_y9=[
0.15,0.25,0.2,0.15,0.26|
0.15,0.18,0.23,0.21,0.23|
0.11,0.31,0.027,0.23,0.32|
0.17,0.36,0.1,0.027,0.35|
0.035,0.2,0.048,0.18,0.53|
];
transition_y10=[
0.019,0.17,0.069,0.34,0.4|
0.13,0.29,0.28,0.12,0.18|
0.029,0.098,0.23,0.34,0.31|
0.057,0.12,0.22,0.2,0.4|
0.19,0.021,0.45,0.033,0.3|
];
